; Copyright (c) 2026 The RIINA Authors. All rights reserved.
; Auto-generated from 02_FORMAL/coq/domains/MeltdownDefense.v (30 validations)
; Generated by scripts/generate-full-stack.py
;
; Translation Validation for MeltdownDefense
; Layer 9: Verifies compiler backend preserves formal semantics.
; Each assertion checks source IR ≡ target code for a proven property.

(set-logic QF_LIA)
(set-option :produce-models true)

; IR node representation
(declare-sort IRNode 0)
(declare-sort TargetNode 0)

; all_meltdown_protected: source semantics (matches Coq)
(declare-fun source_all_meltdown_protected () Bool)
(declare-fun target_all_meltdown_protected () Bool)
(assert (= source_all_meltdown_protected target_all_meltdown_protected))

; meltdown_mitigations_enabled: source semantics (matches Coq)
(declare-fun source_meltdown_mitigations_enabled () Bool)
(declare-fun target_meltdown_mitigations_enabled () Bool)
(assert (= source_meltdown_mitigations_enabled target_meltdown_mitigations_enabled))

; meltdown_fully_protected: source semantics (matches Coq)
(declare-fun source_meltdown_fully_protected () Bool)
(declare-fun target_meltdown_fully_protected () Bool)
(assert (= source_meltdown_fully_protected target_meltdown_fully_protected))

; riina_meltdown_config: source semantics (matches Coq)
(declare-fun source_riina_meltdown_config () Bool)
(declare-fun target_riina_meltdown_config () Bool)
(assert (= source_riina_meltdown_config target_riina_meltdown_config))

; andb_true_iff: translation preserves property (matches Coq: Lemma)
(declare-fun source_andb_true_iff () Bool)
(declare-fun target_andb_true_iff () Bool)
(assert (= source_andb_true_iff target_andb_true_iff))

; MELTDOWN_001_all_variants: translation preserves property (matches Coq: Theorem)
(declare-fun source_MELTDOWN_001_all_variants () Bool)
(declare-fun target_MELTDOWN_001_all_variants () Bool)
(assert (= source_MELTDOWN_001_all_variants target_MELTDOWN_001_all_variants))

; MELTDOWN_002_mitigations: translation preserves property (matches Coq: Theorem)
(declare-fun source_MELTDOWN_002_mitigations () Bool)
(declare-fun target_MELTDOWN_002_mitigations () Bool)
(assert (= source_MELTDOWN_002_mitigations target_MELTDOWN_002_mitigations))

; MELTDOWN_003_fully_protected: translation preserves property (matches Coq: Theorem)
(declare-fun source_MELTDOWN_003_fully_protected () Bool)
(declare-fun target_MELTDOWN_003_fully_protected () Bool)
(assert (= source_MELTDOWN_003_fully_protected target_MELTDOWN_003_fully_protected))

; MELTDOWN_004_us_required: translation preserves property (matches Coq: Theorem)
(declare-fun source_MELTDOWN_004_us_required () Bool)
(declare-fun target_MELTDOWN_004_us_required () Bool)
(assert (= source_MELTDOWN_004_us_required target_MELTDOWN_004_us_required))

; MELTDOWN_005_p_required: translation preserves property (matches Coq: Theorem)
(declare-fun source_MELTDOWN_005_p_required () Bool)
(declare-fun target_MELTDOWN_005_p_required () Bool)
(assert (= source_MELTDOWN_005_p_required target_MELTDOWN_005_p_required))

; MELTDOWN_006_kpti_required: translation preserves property (matches Coq: Theorem)
(declare-fun source_MELTDOWN_006_kpti_required () Bool)
(declare-fun target_MELTDOWN_006_kpti_required () Bool)
(assert (= source_MELTDOWN_006_kpti_required target_MELTDOWN_006_kpti_required))

; MELTDOWN_007_l1tf_required: translation preserves property (matches Coq: Theorem)
(declare-fun source_MELTDOWN_007_l1tf_required () Bool)
(declare-fun target_MELTDOWN_007_l1tf_required () Bool)
(assert (= source_MELTDOWN_007_l1tf_required target_MELTDOWN_007_l1tf_required))

; MELTDOWN_008_full_implies_variants: translation preserves property (matches Coq: Theorem)
(declare-fun source_MELTDOWN_008_full_implies_variants () Bool)
(declare-fun target_MELTDOWN_008_full_implies_variants () Bool)
(assert (= source_MELTDOWN_008_full_implies_variants target_MELTDOWN_008_full_implies_variants))

; MELTDOWN_009_full_implies_mitigations: translation preserves property (matches Coq: Theorem)
(declare-fun source_MELTDOWN_009_full_implies_mitigations () Bool)
(declare-fun target_MELTDOWN_009_full_implies_mitigations () Bool)
(assert (= source_MELTDOWN_009_full_implies_mitigations target_MELTDOWN_009_full_implies_mitigations))

; MELTDOWN_010_riina_kpti: translation preserves property (matches Coq: Theorem)
(declare-fun source_MELTDOWN_010_riina_kpti () Bool)
(declare-fun target_MELTDOWN_010_riina_kpti () Bool)
(assert (= source_MELTDOWN_010_riina_kpti target_MELTDOWN_010_riina_kpti))

; MELTDOWN_011_riina_l1tf: translation preserves property (matches Coq: Theorem)
(declare-fun source_MELTDOWN_011_riina_l1tf () Bool)
(declare-fun target_MELTDOWN_011_riina_l1tf () Bool)
(assert (= source_MELTDOWN_011_riina_l1tf target_MELTDOWN_011_riina_l1tf))

; MELTDOWN_012_full_implies_kpti: translation preserves property (matches Coq: Theorem)
(declare-fun source_MELTDOWN_012_full_implies_kpti () Bool)
(declare-fun target_MELTDOWN_012_full_implies_kpti () Bool)
(assert (= source_MELTDOWN_012_full_implies_kpti target_MELTDOWN_012_full_implies_kpti))

; MELTDOWN_013_full_implies_us: translation preserves property (matches Coq: Theorem)
(declare-fun source_MELTDOWN_013_full_implies_us () Bool)
(declare-fun target_MELTDOWN_013_full_implies_us () Bool)
(assert (= source_MELTDOWN_013_full_implies_us target_MELTDOWN_013_full_implies_us))

; MELTDOWN_014_riina_us: translation preserves property (matches Coq: Theorem)
(declare-fun source_MELTDOWN_014_riina_us () Bool)
(declare-fun target_MELTDOWN_014_riina_us () Bool)
(assert (= source_MELTDOWN_014_riina_us target_MELTDOWN_014_riina_us))

; MELTDOWN_015_complete_defense: translation preserves property (matches Coq: Theorem)
(declare-fun source_MELTDOWN_015_complete_defense () Bool)
(declare-fun target_MELTDOWN_015_complete_defense () Bool)
(assert (= source_MELTDOWN_015_complete_defense target_MELTDOWN_015_complete_defense))

; MELTDOWN_016_rw_required: translation preserves property (matches Coq: Theorem)
(declare-fun source_MELTDOWN_016_rw_required () Bool)
(declare-fun target_MELTDOWN_016_rw_required () Bool)
(assert (= source_MELTDOWN_016_rw_required target_MELTDOWN_016_rw_required))

; MELTDOWN_017_pk_required: translation preserves property (matches Coq: Theorem)
(declare-fun source_MELTDOWN_017_pk_required () Bool)
(declare-fun target_MELTDOWN_017_pk_required () Bool)
(assert (= source_MELTDOWN_017_pk_required target_MELTDOWN_017_pk_required))

; MELTDOWN_018_br_required: translation preserves property (matches Coq: Theorem)
(declare-fun source_MELTDOWN_018_br_required () Bool)
(declare-fun target_MELTDOWN_018_br_required () Bool)
(assert (= source_MELTDOWN_018_br_required target_MELTDOWN_018_br_required))

; MELTDOWN_019_full_implies_l1tf: translation preserves property (matches Coq: Theorem)
(declare-fun source_MELTDOWN_019_full_implies_l1tf () Bool)
(declare-fun target_MELTDOWN_019_full_implies_l1tf () Bool)
(assert (= source_MELTDOWN_019_full_implies_l1tf target_MELTDOWN_019_full_implies_l1tf))

; MELTDOWN_020_full_implies_p: translation preserves property (matches Coq: Theorem)
(declare-fun source_MELTDOWN_020_full_implies_p () Bool)
(declare-fun target_MELTDOWN_020_full_implies_p () Bool)
(assert (= source_MELTDOWN_020_full_implies_p target_MELTDOWN_020_full_implies_p))

; MELTDOWN_021_full_implies_rw: translation preserves property (matches Coq: Theorem)
(declare-fun source_MELTDOWN_021_full_implies_rw () Bool)
(declare-fun target_MELTDOWN_021_full_implies_rw () Bool)
(assert (= source_MELTDOWN_021_full_implies_rw target_MELTDOWN_021_full_implies_rw))

; MELTDOWN_022_full_implies_pk: translation preserves property (matches Coq: Theorem)
(declare-fun source_MELTDOWN_022_full_implies_pk () Bool)
(declare-fun target_MELTDOWN_022_full_implies_pk () Bool)
(assert (= source_MELTDOWN_022_full_implies_pk target_MELTDOWN_022_full_implies_pk))

; MELTDOWN_023_full_implies_br: translation preserves property (matches Coq: Theorem)
(declare-fun source_MELTDOWN_023_full_implies_br () Bool)
(declare-fun target_MELTDOWN_023_full_implies_br () Bool)
(assert (= source_MELTDOWN_023_full_implies_br target_MELTDOWN_023_full_implies_br))

; MELTDOWN_024_riina_p: translation preserves property (matches Coq: Theorem)
(declare-fun source_MELTDOWN_024_riina_p () Bool)
(declare-fun target_MELTDOWN_024_riina_p () Bool)
(assert (= source_MELTDOWN_024_riina_p target_MELTDOWN_024_riina_p))

; MELTDOWN_025_riina_rw: translation preserves property (matches Coq: Theorem)
(declare-fun source_MELTDOWN_025_riina_rw () Bool)
(declare-fun target_MELTDOWN_025_riina_rw () Bool)
(assert (= source_MELTDOWN_025_riina_rw target_MELTDOWN_025_riina_rw))

; MELTDOWN_026_riina_pk: translation preserves property (matches Coq: Theorem)
(declare-fun source_MELTDOWN_026_riina_pk () Bool)
(declare-fun target_MELTDOWN_026_riina_pk () Bool)
(assert (= source_MELTDOWN_026_riina_pk target_MELTDOWN_026_riina_pk))

; MELTDOWN_027_riina_br: translation preserves property (matches Coq: Theorem)
(declare-fun source_MELTDOWN_027_riina_br () Bool)
(declare-fun target_MELTDOWN_027_riina_br () Bool)
(assert (= source_MELTDOWN_027_riina_br target_MELTDOWN_027_riina_br))

; MELTDOWN_028_variant_mitigation_composition: translation preserves property (matches Coq: Theorem)
(declare-fun source_MELTDOWN_028_variant_mitigation_composition () Bool)
(declare-fun target_MELTDOWN_028_variant_mitigation_composition () Bool)
(assert (= source_MELTDOWN_028_variant_mitigation_composition target_MELTDOWN_028_variant_mitigation_composition))

; MELTDOWN_029_complete_decomposition: translation preserves property (matches Coq: Theorem)
(declare-fun source_MELTDOWN_029_complete_decomposition () Bool)
(declare-fun target_MELTDOWN_029_complete_decomposition () Bool)
(assert (= source_MELTDOWN_029_complete_decomposition target_MELTDOWN_029_complete_decomposition))

; Verify all translation validations are satisfiable
(check-sat)
(exit)
